43497
000011001010001000110100110110
18 4 21 21 5 18 21 28 18 14 4 28 10 5 28 18 10 14 18 27 18 21 5 24 10 18 5 10 19 21 19 19 4 21 27 4 14 8 27 21 18 8 28 4 14 14 10 21 5 14 24 21 19 21 8 19 18 8 27 27 4 5 18 8 8 25 5 19 25 18 27 25 19 19 27 10 14 5 8 18 10 14 8 25 4 8 4 5 27 28 28 19 25 25 25 8 18 25 10 28 28 21 25 18 14 24 25 24 18 8 19 4 18 25 18 8 28 25 10 8 8 27 14 19 14 24 21 25 4 10 28 5 25 10 5 19 8 8 28 14 19 18 19 27 25 21 27 21 27 25 24 24 28 27 8 25 5 24 8 8 10 27 8 21 10 27 5 4 10 21 5 14 8 14 4 21 27 5 4 10 5 21 27 14 14 8 28 10 28 5 21 21 19 4 25 28 25 21 10 19 